NAME: mini2.tsp
TYPE: TSP
DIMENSION: 9
EDGE_WEIGHT_TYPE: EUC_2D
NODE_COORD_SECTION
1 38.24 20.42
2 39.57 26.15
3 40.56 25.32
4 36.26 23.12
5 33.48 10.54
6 37.56 12.19
7 38.42 13.11
8 37.52 20.44
9 41.23 9.10
EOF
